c nIsolatedPIs 0
c maxPI 32
p cnf 291 778
c gate 33 5 -21 0
5 -33 0
-21 -33 0
-5 21 33 0
c gate 34 -3 19 0
-3 -34 0
19 -34 0
3 -19 34 0
c gate 35 -2 18 0
-2 -35 0
18 -35 0
2 -18 35 0
c gate 36 -1 17 0
-1 -36 0
17 -36 0
1 -17 36 0
c gate 37 -35 -36 0
-35 -37 0
-36 -37 0
35 36 37 0
c gate 38 2 -18 0
2 -38 0
-18 -38 0
-2 18 38 0
c gate 39 3 -19 0
3 -39 0
-19 -39 0
-3 19 39 0
c gate 40 -38 -39 0
-38 -40 0
-39 -40 0
38 39 40 0
c gate 41 -37 40 0
-37 -41 0
40 -41 0
37 -40 41 0
c gate 42 -34 -41 0
-34 -42 0
-41 -42 0
34 41 42 0
c gate 43 4 -20 0
4 -43 0
-20 -43 0
-4 20 43 0
c gate 44 -42 -43 0
-42 -44 0
-43 -44 0
42 43 44 0
c gate 45 -4 20 0
-4 -45 0
20 -45 0
4 -20 45 0
c gate 46 -44 -45 0
-44 -46 0
-45 -46 0
44 45 46 0
c gate 47 -33 -46 0
-33 -47 0
-46 -47 0
33 46 47 0
c gate 48 -6 -22 0
-6 -48 0
-22 -48 0
6 22 48 0
c gate 49 6 22 0
6 -49 0
22 -49 0
-6 -22 49 0
c gate 50 -48 -49 0
-48 -50 0
-49 -50 0
48 49 50 0
c gate 51 -5 21 0
-5 -51 0
21 -51 0
5 -21 51 0
c gate 52 -50 -51 0
-50 -52 0
-51 -52 0
50 51 52 0
c gate 53 -47 52 0
-47 -53 0
52 -53 0
47 -52 53 0
c gate 54 5 21 0
5 -54 0
21 -54 0
-5 -21 54 0
c gate 55 -33 -51 0
-33 -55 0
-51 -55 0
33 51 55 0
c gate 56 -54 55 0
-54 -56 0
55 -56 0
54 -55 56 0
c gate 57 -46 56 0
-46 -57 0
56 -57 0
46 -56 57 0
c gate 58 50 57 0
50 -58 0
57 -58 0
-50 -57 58 0
c gate 59 -53 -58 0
-53 -59 0
-58 -59 0
53 58 59 0
c gate 60 12 -28 0
12 -60 0
-28 -60 0
-12 28 60 0
c gate 61 11 -27 0
11 -61 0
-27 -61 0
-11 27 61 0
c gate 62 -60 -61 0
-60 -62 0
-61 -62 0
60 61 62 0
c gate 63 -10 26 0
-10 -63 0
26 -63 0
10 -26 63 0
c gate 64 -9 25 0
-9 -64 0
25 -64 0
9 -25 64 0
c gate 65 7 -23 0
7 -65 0
-23 -65 0
-7 23 65 0
c gate 66 6 -22 0
6 -66 0
-22 -66 0
-6 22 66 0
c gate 67 -53 -66 0
-53 -67 0
-66 -67 0
53 66 67 0
c gate 68 -7 -23 0
-7 -68 0
-23 -68 0
7 23 68 0
c gate 69 7 23 0
7 -69 0
23 -69 0
-7 -23 69 0
c gate 70 -68 -69 0
-68 -70 0
-69 -70 0
68 69 70 0
c gate 71 -67 -70 0
-67 -71 0
-70 -71 0
67 70 71 0
c gate 72 -65 -71 0
-65 -72 0
-71 -72 0
65 71 72 0
c gate 73 8 24 0
8 -73 0
24 -73 0
-8 -24 73 0
c gate 74 -8 -24 0
-8 -74 0
-24 -74 0
8 24 74 0
c gate 75 -73 -74 0
-73 -75 0
-74 -75 0
73 74 75 0
c gate 76 -72 -75 0
-72 -76 0
-75 -76 0
72 75 76 0
c gate 77 8 -24 0
8 -77 0
-24 -77 0
-8 24 77 0
c gate 78 9 -25 0
9 -78 0
-25 -78 0
-9 25 78 0
c gate 79 -77 -78 0
-77 -79 0
-78 -79 0
77 78 79 0
c gate 80 -76 79 0
-76 -80 0
79 -80 0
76 -79 80 0
c gate 81 -64 -80 0
-64 -81 0
-80 -81 0
64 80 81 0
c gate 82 -10 -26 0
-10 -82 0
-26 -82 0
10 26 82 0
c gate 83 10 26 0
10 -83 0
26 -83 0
-10 -26 83 0
c gate 84 -82 -83 0
-82 -84 0
-83 -84 0
82 83 84 0
c gate 85 -81 -84 0
-81 -85 0
-84 -85 0
81 84 85 0
c gate 86 -63 -85 0
-63 -86 0
-85 -86 0
63 85 86 0
c gate 87 62 -86 0
62 -87 0
-86 -87 0
-62 86 87 0
c gate 88 -11 -27 0
-11 -88 0
-27 -88 0
11 27 88 0
c gate 89 11 27 0
11 -89 0
27 -89 0
-11 -27 89 0
c gate 90 -88 -89 0
-88 -90 0
-89 -90 0
88 89 90 0
c gate 91 62 90 0
62 -91 0
90 -91 0
-62 -90 91 0
c gate 92 -13 -29 0
-13 -92 0
-29 -92 0
13 29 92 0
c gate 93 13 29 0
13 -93 0
29 -93 0
-13 -29 93 0
c gate 94 -92 -93 0
-92 -94 0
-93 -94 0
92 93 94 0
c gate 95 -12 28 0
-12 -95 0
28 -95 0
12 -28 95 0
c gate 96 -94 -95 0
-94 -96 0
-95 -96 0
94 95 96 0
c gate 97 -91 96 0
-91 -97 0
96 -97 0
91 -96 97 0
c gate 98 87 97 0
87 -98 0
97 -98 0
-87 -97 98 0
c gate 99 86 90 0
86 -99 0
90 -99 0
-86 -90 99 0
c gate 100 -86 -90 0
-86 -100 0
-90 -100 0
86 90 100 0
c gate 101 -99 -100 0
-99 -101 0
-100 -101 0
99 100 101 0
c gate 102 10 -26 0
10 -102 0
-26 -102 0
-10 26 102 0
c gate 103 -79 -84 0
-79 -103 0
-84 -103 0
79 84 103 0
c gate 104 -102 -103 0
-102 -104 0
-103 -104 0
102 103 104 0
c gate 105 90 -104 0
90 -105 0
-104 -105 0
-90 104 105 0
c gate 106 -101 -105 0
-101 -106 0
-105 -106 0
101 105 106 0
c gate 107 79 84 0
79 -107 0
84 -107 0
-79 -84 107 0
c gate 108 -103 -107 0
-103 -108 0
-107 -108 0
103 107 108 0
c gate 109 81 84 0
81 -109 0
84 -109 0
-81 -84 109 0
c gate 110 -85 -109 0
-85 -110 0
-109 -110 0
85 109 110 0
c gate 111 108 110 0
108 -111 0
110 -111 0
-108 -110 111 0
c gate 112 -108 -110 0
-108 -112 0
-110 -112 0
108 110 112 0
c gate 113 -64 -78 0
-64 -113 0
-78 -113 0
64 78 113 0
c gate 114 76 113 0
76 -114 0
113 -114 0
-76 -113 114 0
c gate 115 -71 -76 0
-71 -115 0
-76 -115 0
71 76 115 0
c gate 116 59 -71 0
59 -116 0
-71 -116 0
-59 71 116 0
c gate 117 -56 116 0
-56 -117 0
116 -117 0
56 -116 117 0
c gate 118 -16 -32 0
-16 -118 0
-32 -118 0
16 32 118 0
c gate 119 16 32 0
16 -119 0
32 -119 0
-16 -32 119 0
c gate 120 -118 -119 0
-118 -120 0
-119 -120 0
118 119 120 0
c gate 121 15 31 0
15 -121 0
31 -121 0
-15 -31 121 0
c gate 122 -14 -30 0
-14 -122 0
-30 -122 0
14 30 122 0
c gate 123 14 -30 0
14 -123 0
-30 -123 0
-14 30 123 0
c gate 124 -14 30 0
-14 -124 0
30 -124 0
14 -30 124 0
c gate 125 -123 -124 0
-123 -125 0
-124 -125 0
123 124 125 0
c gate 126 12 28 0
12 -126 0
28 -126 0
-12 -28 126 0
c gate 127 4 20 0
4 -127 0
20 -127 0
-4 -20 127 0
c gate 128 -4 -20 0
-4 -128 0
-20 -128 0
4 20 128 0
c gate 129 3 19 0
3 -129 0
19 -129 0
-3 -19 129 0
c gate 130 1 17 0
1 -130 0
17 -130 0
-1 -17 130 0
c gate 131 2 18 0
2 -131 0
18 -131 0
-2 -18 131 0
c gate 132 -130 -131 0
-130 -132 0
-131 -132 0
130 131 132 0
c gate 133 -34 -39 0
-34 -133 0
-39 -133 0
34 39 133 0
c gate 134 -132 -133 0
-132 -134 0
-133 -134 0
132 133 134 0
c gate 135 -129 -134 0
-129 -135 0
-134 -135 0
129 134 135 0
c gate 136 -128 -135 0
-128 -136 0
-135 -136 0
128 135 136 0
c gate 137 -127 -136 0
-127 -137 0
-136 -137 0
127 136 137 0
c gate 138 -2 -18 0
-2 -138 0
-18 -138 0
2 18 138 0
c gate 139 -129 138 0
-129 -139 0
138 -139 0
129 -138 139 0
c gate 140 -127 139 0
-127 -140 0
139 -140 0
127 -139 140 0
c gate 141 -137 -140 0
-137 -141 0
-140 -141 0
137 140 141 0
c gate 142 -55 141 0
-55 -142 0
141 -142 0
55 -141 142 0
c gate 143 -54 -142 0
-54 -143 0
-142 -143 0
54 142 143 0
c gate 144 50 143 0
50 -144 0
143 -144 0
-50 -143 144 0
c gate 145 -48 -144 0
-48 -145 0
-144 -145 0
48 144 145 0
c gate 146 70 -145 0
70 -146 0
-145 -146 0
-70 145 146 0
c gate 147 -68 -74 0
-68 -147 0
-74 -147 0
68 74 147 0
c gate 148 -146 147 0
-146 -148 0
147 -148 0
146 -147 148 0
c gate 149 9 25 0
9 -149 0
25 -149 0
-9 -25 149 0
c gate 150 -73 -149 0
-73 -150 0
-149 -150 0
73 149 150 0
c gate 151 -148 150 0
-148 -151 0
150 -151 0
148 -150 151 0
c gate 152 -9 -25 0
-9 -152 0
-25 -152 0
9 25 152 0
c gate 153 -82 -152 0
-82 -153 0
-152 -153 0
82 152 153 0
c gate 154 -151 153 0
-151 -154 0
153 -154 0
151 -153 154 0
c gate 155 -83 -89 0
-83 -155 0
-89 -155 0
83 89 155 0
c gate 156 -154 155 0
-154 -156 0
155 -156 0
154 -155 156 0
c gate 157 -12 -28 0
-12 -157 0
-28 -157 0
12 28 157 0
c gate 158 -88 -157 0
-88 -158 0
-157 -158 0
88 157 158 0
c gate 159 -156 158 0
-156 -159 0
158 -159 0
156 -158 159 0
c gate 160 -126 -159 0
-126 -160 0
-159 -160 0
126 159 160 0
c gate 161 -93 160 0
-93 -161 0
160 -161 0
93 -160 161 0
c gate 162 -92 -161 0
-92 -162 0
-161 -162 0
92 161 162 0
c gate 163 -125 -162 0
-125 -163 0
-162 -163 0
125 162 163 0
c gate 164 -122 -163 0
-122 -164 0
-163 -164 0
122 163 164 0
c gate 165 -15 31 0
-15 -165 0
31 -165 0
15 -31 165 0
c gate 166 15 -31 0
15 -166 0
-31 -166 0
-15 31 166 0
c gate 167 -165 -166 0
-165 -167 0
-166 -167 0
165 166 167 0
c gate 168 164 -167 0
164 -168 0
-167 -168 0
-164 167 168 0
c gate 169 -121 -168 0
-121 -169 0
-168 -169 0
121 168 169 0
c gate 170 120 169 0
120 -170 0
169 -170 0
-120 -169 170 0
c gate 171 -120 -169 0
-120 -171 0
-169 -171 0
120 169 171 0
c gate 172 -170 -171 0
-170 -172 0
-171 -172 0
170 171 172 0
c gate 173 -93 -126 0
-93 -173 0
-126 -173 0
93 126 173 0
c gate 174 -125 173 0
-125 -174 0
173 -174 0
125 -173 174 0
c gate 175 -122 -174 0
-122 -175 0
-174 -175 0
122 174 175 0
c gate 176 -121 -175 0
-121 -176 0
-175 -176 0
121 175 176 0
c gate 177 120 176 0
120 -177 0
176 -177 0
-120 -176 177 0
c gate 178 -120 -176 0
-120 -178 0
-176 -178 0
120 176 178 0
c gate 179 -177 -178 0
-177 -179 0
-178 -179 0
177 178 179 0
c gate 180 172 -179 0
172 -180 0
-179 -180 0
-172 179 180 0
c gate 181 -172 179 0
-172 -181 0
179 -181 0
172 -179 181 0
c gate 182 -180 -181 0
-180 -182 0
-181 -182 0
180 181 182 0
c gate 183 120 -182 0
120 -183 0
-182 -183 0
-120 182 183 0
c gate 184 117 -183 0
117 -184 0
-183 -184 0
-117 183 184 0
c gate 185 75 146 0
75 -185 0
146 -185 0
-75 -146 185 0
c gate 186 -35 130 0
-35 -186 0
130 -186 0
35 -130 186 0
c gate 187 -38 186 0
-38 -187 0
186 -187 0
38 -186 187 0
c gate 188 55 -141 0
55 -188 0
-141 -188 0
-55 141 188 0
c gate 189 -142 -188 0
-142 -189 0
-188 -189 0
142 188 189 0
c gate 190 54 -137 0
54 -190 0
-137 -190 0
-54 137 190 0
c gate 191 -54 137 0
-54 -191 0
137 -191 0
54 -137 191 0
c gate 192 -190 -191 0
-190 -192 0
-191 -192 0
190 191 192 0
c gate 193 189 192 0
189 -193 0
192 -193 0
-189 -192 193 0
c gate 194 -189 -192 0
-189 -194 0
-192 -194 0
189 192 194 0
c gate 195 -193 -194 0
-193 -195 0
-194 -195 0
193 194 195 0
c gate 196 130 138 0
130 -196 0
138 -196 0
-130 -138 196 0
c gate 197 133 196 0
133 -197 0
196 -197 0
-133 -196 197 0
c gate 198 -127 -128 0
-127 -198 0
-128 -198 0
127 128 198 0
c gate 199 139 -198 0
139 -199 0
-198 -199 0
-139 198 199 0
c gate 200 -135 199 0
-135 -200 0
199 -200 0
135 -199 200 0
c gate 201 -197 -200 0
-197 -201 0
-200 -201 0
197 200 201 0
c gate 202 195 201 0
195 -202 0
201 -202 0
-195 -201 202 0
c gate 203 -50 137 0
-50 -203 0
137 -203 0
50 -137 203 0
c gate 204 143 -203 0
143 -204 0
-203 -204 0
-143 203 204 0
c gate 205 202 -204 0
202 -205 0
-204 -205 0
-202 204 205 0
c gate 206 187 205 0
187 -206 0
205 -206 0
-187 -205 206 0
c gate 207 -146 206 0
-146 -207 0
206 -207 0
146 -206 207 0
c gate 208 -185 -207 0
-185 -208 0
-207 -208 0
185 207 208 0
c gate 209 -164 167 0
-164 -209 0
167 -209 0
164 -167 209 0
c gate 210 -168 -209 0
-168 -210 0
-209 -210 0
168 209 210 0
c gate 211 167 175 0
167 -211 0
175 -211 0
-167 -175 211 0
c gate 212 -167 -175 0
-167 -212 0
-175 -212 0
167 175 212 0
c gate 213 -211 -212 0
-211 -213 0
-212 -213 0
211 212 213 0
c gate 214 -210 -213 0
-210 -214 0
-213 -214 0
210 213 214 0
c gate 215 210 213 0
210 -215 0
213 -215 0
-210 -213 215 0
c gate 216 94 126 0
94 -216 0
126 -216 0
-94 -126 216 0
c gate 217 -160 -216 0
-160 -217 0
-216 -217 0
160 216 217 0
c gate 218 -215 -217 0
-215 -218 0
-217 -218 0
215 217 218 0
c gate 219 -214 218 0
-214 -219 0
218 -219 0
214 -218 219 0
c gate 220 182 219 0
182 -220 0
219 -220 0
-182 -219 220 0
c gate 221 208 220 0
208 -221 0
220 -221 0
-208 -220 221 0
c gate 222 84 90 0
84 -222 0
90 -222 0
-84 -90 222 0
c gate 223 -60 -95 0
-60 -223 0
-95 -223 0
60 95 223 0
c gate 224 -113 -223 0
-113 -224 0
-223 -224 0
113 223 224 0
c gate 225 222 224 0
222 -225 0
224 -225 0
-222 -224 225 0
c gate 226 185 -225 0
185 -226 0
-225 -226 0
-185 225 226 0
c gate 227 220 -226 0
220 -227 0
-226 -227 0
-220 226 227 0
c gate 228 125 -173 0
125 -228 0
-173 -228 0
-125 173 228 0
c gate 229 -174 -228 0
-174 -229 0
-228 -229 0
174 228 229 0
c gate 230 125 162 0
125 -230 0
162 -230 0
-125 -162 230 0
c gate 231 -163 -230 0
-163 -231 0
-230 -231 0
163 230 231 0
c gate 232 -229 231 0
-229 -232 0
231 -232 0
229 -231 232 0
c gate 233 -94 -160 0
-94 -233 0
-160 -233 0
94 160 233 0
c gate 234 -232 233 0
-232 -234 0
233 -234 0
232 -233 234 0
c gate 235 229 -231 0
229 -235 0
-231 -235 0
-229 231 235 0
c gate 236 -234 -235 0
-234 -236 0
-235 -236 0
234 235 236 0
c gate 237 -215 236 0
-215 -237 0
236 -237 0
215 -236 237 0
c gate 238 -214 -237 0
-214 -238 0
-237 -238 0
214 237 238 0
c gate 239 -180 238 0
-180 -239 0
238 -239 0
180 -238 239 0
c gate 240 -181 -239 0
-181 -240 0
-239 -240 0
181 239 240 0
c gate 241 -227 240 0
-227 -241 0
240 -241 0
227 -240 241 0
c gate 242 -221 -241 0
-221 -242 0
-241 -242 0
221 241 242 0
c gate 243 184 -242 0
184 -243 0
-242 -243 0
-184 242 243 0
c gate 244 117 -177 0
117 -244 0
-177 -244 0
-117 177 244 0
c gate 245 170 244 0
170 -245 0
244 -245 0
-170 -244 245 0
c gate 246 57 116 0
57 -246 0
116 -246 0
-57 -116 246 0
c gate 247 53 70 0
53 -247 0
70 -247 0
-53 -70 247 0
c gate 248 -246 -247 0
-246 -248 0
-247 -248 0
246 247 248 0
c gate 249 -245 248 0
-245 -249 0
248 -249 0
245 -248 249 0
c gate 250 -184 249 0
-184 -250 0
249 -250 0
184 -249 250 0
c gate 251 -243 -250 0
-243 -251 0
-250 -251 0
243 250 251 0
c gate 252 115 -251 0
115 -252 0
-251 -252 0
-115 251 252 0
c gate 253 -114 -252 0
-114 -253 0
-252 -253 0
114 252 253 0
c gate 254 -112 -253 0
-112 -254 0
-253 -254 0
112 253 254 0
c gate 255 -111 -254 0
-111 -255 0
-254 -255 0
111 254 255 0
c gate 256 -106 -255 0
-106 -256 0
-255 -256 0
106 255 256 0
c gate 257 -86 105 0
-86 -257 0
105 -257 0
86 -105 257 0
c gate 258 -100 -257 0
-100 -258 0
-257 -258 0
100 257 258 0
c gate 259 -256 258 0
-256 -259 0
258 -259 0
256 -258 259 0
c gate 260 -98 -259 0
-98 -260 0
-259 -260 0
98 259 260 0
c gate 261 125 167 0
125 -261 0
167 -261 0
-125 -167 261 0
c gate 262 98 -261 0
98 -262 0
-261 -262 0
-98 261 262 0
c gate 263 13 -29 0
13 -263 0
-29 -263 0
-13 29 263 0
c gate 264 -123 -263 0
-123 -264 0
-263 -264 0
123 263 264 0
c gate 265 87 264 0
87 -265 0
264 -265 0
-87 -264 265 0
c gate 266 167 -265 0
167 -266 0
-265 -266 0
-167 265 266 0
c gate 267 -97 264 0
-97 -267 0
264 -267 0
97 -264 267 0
c gate 268 -124 -165 0
-124 -268 0
-165 -268 0
124 165 268 0
c gate 269 -267 268 0
-267 -269 0
268 -269 0
267 -268 269 0
c gate 270 -266 269 0
-266 -270 0
269 -270 0
266 -269 270 0
c gate 271 120 -166 0
120 -271 0
-166 -271 0
-120 166 271 0
c gate 272 270 271 0
270 -272 0
271 -272 0
-270 -271 272 0
c gate 273 -262 -272 0
-262 -273 0
-272 -273 0
262 272 273 0
c gate 274 -260 273 0
-260 -274 0
273 -274 0
260 -273 274 0
c gate 275 -146 205 0
-146 -275 0
205 -275 0
146 -205 275 0
c gate 276 185 225 0
185 -276 0
225 -276 0
-185 -225 276 0
c gate 277 -275 -276 0
-275 -277 0
-276 -277 0
275 276 277 0
c gate 278 220 -277 0
220 -278 0
-277 -278 0
-220 277 278 0
c gate 279 240 -278 0
240 -279 0
-278 -279 0
-240 278 279 0
c gate 280 274 -279 0
274 -280 0
-279 -280 0
-274 279 280 0
c gate 281 -242 -274 0
-242 -281 0
-274 -281 0
242 274 281 0
c gate 282 -280 -281 0
-280 -282 0
-281 -282 0
280 281 282 0
c gate 283 -56 282 0
-56 -283 0
282 -283 0
56 -282 283 0
c gate 284 46 -274 0
46 -284 0
-274 -284 0
-46 274 284 0
c gate 285 -46 274 0
-46 -285 0
274 -285 0
46 -274 285 0
c gate 286 56 -285 0
56 -286 0
-285 -286 0
-56 285 286 0
c gate 287 -284 286 0
-284 -287 0
286 -287 0
284 -286 287 0
c gate 288 -283 -287 0
-283 -288 0
-287 -288 0
283 287 288 0
c gate 289 59 288 0
59 -289 0
288 -289 0
-59 -288 289 0
c gate 290 -59 -288 0
-59 -290 0
-288 -290 0
59 288 290 0
c gate 291 -289 -290 0
-289 -291 0
-290 -291 0
289 290 291 0
c PO
291 0
